NAME: berlin52-12-3
TYPE: TSP
COMMENT: min_cost = 3272.39
DIMENSION: 12
EDGE_WEIGHT_TYPE: EUC_2D
NODE_COORD_SECTION
1 660 180
2 725 370
3 830 610
4 415 635
5 1530 5
6 685 610
7 945 685
8 480 415
9 1215 245
10 555 815
11 795 645
12 685 595
EOF
